\ Model idol-model
\ LP format - for model browsing. Use MPS format to capture full model detail.
\ Signature: 0xe54710565b625aea
Minimize
  100 y0 + 220 y1 + 90 y2 + 400 y3 + 300 y4 + 400 y5 + 205 y6 + 120 y7
   + 160 y8 + 580 y9 + 400 y10 + 140 y11 + 100 y12 + 1300 y13 + 650 y14
   + 320 y15 + 480 y16 + 80 y17 + 60 y18 + 2550 y19 + 3100 y20 + 1100 y21
   + 950 y22 + 450 y23 + 300 y24 + 220 y25 + 200 y26 + 520 y27
Subject To
 KL0: 8 x0 + 24 x1 + 13 x2 + 80 x3 + 70 x4 + 80 x5 + 45 x6 + 15 x7 + 28 x8
   + 90 x9 + 130 x10 + 32 x11 + 20 x12 + 120 x13 + 40 x14 + 30 x15 + 20 x16
   + 6 x17 + 3 x18 + 180 x19 + 220 x20 + 50 x21 + 30 x22 + 50 x23 + 12 x24
   + 5 x25 + 8 x26 + 18 x27 <= 930
 KL1: 8 x0 + 44 x1 + 13 x2 + 100 x3 + 100 x4 + 90 x5 + 75 x6 + 25 x7
   + 28 x8 + 120 x9 + 130 x10 + 32 x11 + 40 x12 + 160 x13 + 40 x14 + 60 x15
   + 55 x16 + 10 x17 + 6 x18 + 240 x19 + 290 x20 + 80 x21 + 90 x22 + 70 x23
   + 27 x24 + 17 x25 + 8 x26 + 28 x27 <= 1210
 KL2: 3 x0 + 6 x1 + 4 x2 + 20 x3 + 20 x4 + 30 x5 + 8 x6 + 3 x7 + 12 x8
   + 14 x9 + 40 x10 + 6 x11 + 3 x12 + 20 x13 + 5 x14 + 5 x16 + 3 x17
   + 20 x19 + 30 x20 + 40 x21 + 10 x22 + 5 x24 + 10 x27 <= 272
 KL3: 5 x0 + 9 x1 + 6 x2 + 40 x3 + 30 x4 + 40 x5 + 16 x6 + 5 x7 + 18 x8
   + 24 x9 + 60 x10 + 16 x11 + 11 x12 + 30 x13 + 25 x14 + 10 x15 + 13 x16
   + 5 x17 + x18 + 80 x19 + 60 x20 + 50 x21 + 20 x22 + 30 x23 + 10 x24
   + 5 x25 + 3 x26 + 20 x27 <= 462
 KL4: 5 x0 + 11 x1 + 7 x2 + 50 x3 + 40 x4 + 40 x5 + 19 x6 + 7 x7 + 18 x8
   + 29 x9 + 70 x10 + 21 x11 + 17 x12 + 30 x13 + 25 x14 + 15 x15 + 25 x16
   + 5 x17 + x18 + 100 x19 + 70 x20 + 55 x21 + 20 x22 + 50 x23 + 15 x24
   + 15 x25 + 6 x26 + 20 x27 <= 532
 KL5: 5 x0 + 11 x1 + 7 x2 + 55 x3 + 40 x4 + 40 x5 + 21 x6 + 9 x7 + 18 x8
   + 29 x9 + 70 x10 + 21 x11 + 17 x12 + 35 x13 + 25 x14 + 20 x15 + 25 x16
   + 5 x17 + 2 x18 + 110 x19 + 70 x20 + 55 x21 + 20 x22 + 50 x23 + 20 x24
   + 15 x25 + 6 x26 + 20 x27 <= 572
 KL6: x2 + 10 x3 + 4 x4 + 10 x5 + 6 x7 + 6 x9 + 32 x10 + 3 x11 + 70 x13
   + 10 x14 + 30 x20 + 10 x21 + 10 x23 + 10 x24 + 5 x25 + 10 x27 <= 240
 KL7: 3 x0 + 4 x1 + 5 x2 + 20 x3 + 14 x4 + 20 x5 + 6 x6 + 12 x7 + 10 x8
   + 18 x9 + 42 x10 + 9 x11 + 12 x12 + 100 x13 + 20 x14 + 5 x15 + 6 x16
   + 4 x17 + x18 + 20 x19 + 50 x20 + 30 x21 + 5 x22 + 20 x23 + 20 x24
   + 10 x25 + 10 x26 + 20 x27 <= 400
 KL8: 3 x0 + 6 x1 + 9 x2 + 30 x3 + 29 x4 + 20 x5 + 12 x6 + 12 x7 + 10 x8
   + 30 x9 + 42 x10 + 18 x11 + 18 x12 + 110 x13 + 20 x14 + 15 x15 + 18 x16
   + 7 x17 + 2 x18 + 40 x19 + 60 x20 + 50 x21 + 25 x22 + 25 x23 + 25 x24
   + 15 x25 + 10 x26 + 28 x27 <= 470
 KF0: 3 y0 + 8 y1 + 9 y2 + 35 y3 + 29 y4 + 20 y5 + 16 y6 + 15 y7 + 10 y8
   + 30 y9 + 42 y10 + 20 y11 + 18 y12 + 120 y13 + 20 y14 + 20 y15 + 22 y16
   + 7 y17 + 3 y18 + 50 y19 + 60 y20 + 55 y21 + 25 y22 + 30 y23 + 25 y24
   + 15 y25 + 10 y26 + 28 y27 <= 490
 I0: x0 + y0 <= 1
 I1: x1 + y1 <= 1
 I2: x2 + y2 <= 1
 I3: x3 + y3 <= 1
 I4: x4 + y4 <= 1
 I5: x5 + y5 <= 1
 I6: x6 + y6 <= 1
 I7: x7 + y7 <= 1
 I8: x8 + y8 <= 1
 I9: x9 + y9 <= 1
 I10: x10 + y10 <= 1
 I11: x11 + y11 <= 1
 I12: x12 + y12 <= 1
 I13: x13 + y13 <= 1
 I14: x14 + y14 <= 1
 I15: x15 + y15 <= 1
 I16: x16 + y16 <= 1
 I17: x17 + y17 <= 1
 I18: x18 + y18 <= 1
 I19: x19 + y19 <= 1
 I20: x20 + y20 <= 1
 I21: x21 + y21 <= 1
 I22: x22 + y22 <= 1
 I23: x23 + y23 <= 1
 I24: x24 + y24 <= 1
 I25: x25 + y25 <= 1
 I26: x26 + y26 <= 1
 I27: x27 + y27 <= 1
 c_122: - 100 y0 - 220 y1 - 90 y2 - 400 y3 - 300 y4 - 400 y5 - 205 y6
   - 120 y7 - 160 y8 - 580 y9 - 400 y10 - 140 y11 - 100 y12 - 1300 y13
   - 650 y14 - 320 y15 - 480 y16 - 80 y17 - 60 y18 - 2550 y19 - 3100 y20
   - 1100 y21 - 950 y22 - 450 y23 - 300 y24 - 220 y25 - 200 y26 - 520 y27
   <= 0
Bounds
Binaries
 x0 x1 x2 x3 x4 x5 x6 x7 x8 x9 x10 x11 x12 x13 x14 x15 x16 x17 x18 x19 x20
 x21 x22 x23 x24 x25 x26 x27 y0 y1 y2 y3 y4 y5 y6 y7 y8 y9 y10 y11 y12 y13
 y14 y15 y16 y17 y18 y19 y20 y21 y22 y23 y24 y25 y26 y27
End
